50
1 0 8
2 0 22
2 1 19
3 0 33
3 1 28
3 2 16
4 0 35
4 1 15
4 2 21
4 3 10
5 0 11
5 1 8
5 2 3
5 3 27
5 4 23
6 0 40
6 1 16
6 2 30
6 3 26
6 4 17
6 5 19
7 0 4
7 1 20
7 2 34
7 3 2
7 4 24
7 5 26
7 6 37
8 0 35
8 1 21
8 2 16
8 3 11
8 4 8
8 5 25
8 6 23
8 7 40
9 0 32
9 1 7
9 2 7
9 3 29
9 4 38
9 5 30
9 6 23
9 7 16
9 8 30
10 0 30
10 1 30
10 2 11
10 3 17
10 4 34
10 5 10
10 6 16
10 7 20
10 8 13
10 9 6
11 0 32
11 1 10
11 2 31
11 3 40
11 4 18
11 5 19
11 6 8
11 7 26
11 8 5
11 9 27
11 10 9
12 0 20
12 1 35
12 2 5
12 3 24
12 4 11
12 5 9
12 6 23
12 7 40
12 8 33
12 9 36
12 10 14
12 11 40
13 0 4
13 1 18
13 2 7
13 3 5
13 4 24
13 5 26
13 6 38
13 7 21
13 8 39
13 9 15
13 10 22
13 11 5
13 12 3
14 0 34
14 1 1
14 2 38
14 3 13
14 4 4
14 5 34
14 6 15
14 7 37
14 8 36
14 9 18
14 10 35
14 11 2
14 12 2
14 13 19
15 0 23
15 1 8
15 2 10
15 3 16
15 4 11
15 5 23
15 6 40
15 7 28
15 8 7
15 9 37
15 10 33
15 11 33
15 12 12
15 13 4
15 14 40
16 0 15
16 1 6
16 2 27
16 3 29
16 4 1
16 5 22
16 6 37
16 7 9
16 8 8
16 9 17
16 10 11
16 11 8
16 12 1
16 13 25
16 14 40
16 15 29
17 0 38
17 1 36
17 2 34
17 3 23
17 4 16
17 5 37
17 6 20
17 7 14
17 8 9
17 9 4
17 10 19
17 11 36
17 12 27
17 13 35
17 14 29
17 15 12
17 16 10
18 0 12
18 1 40
18 2 3
18 3 38
18 4 21
18 5 34
18 6 2
18 7 5
18 8 11
18 9 18
18 10 38
18 11 22
18 12 11
18 13 11
18 14 31
18 15 9
18 16 25
18 17 29
19 0 39
19 1 31
19 2 9
19 3 22
19 4 2
19 5 38
19 6 33
19 7 24
19 8 24
19 9 11
19 10 22
19 11 2
19 12 19
19 13 28
19 14 22
19 15 19
19 16 16
19 17 4
19 18 21
20 0 9
20 1 4
20 2 4
20 3 38
20 4 38
20 5 33
20 6 2
20 7 22
20 8 16
20 9 38
20 10 22
20 11 5
20 12 18
20 13 33
20 14 28
20 15 32
20 16 22
20 17 17
20 18 1
20 19 21
21 0 25
21 1 37
21 2 34
21 3 1
21 4 11
21 5 29
21 6 5
21 7 30
21 8 27
21 9 14
21 10 23
21 11 30
21 12 32
21 13 10
21 14 17
21 15 38
21 16 25
21 17 19
21 18 31
21 19 30
21 20 14
22 0 29
22 1 39
22 2 31
22 3 13
22 4 12
22 5 4
22 6 1
22 7 17
22 8 29
22 9 16
22 10 4
22 11 27
22 12 18
22 13 28
22 14 33
22 15 14
22 16 26
22 17 30
22 18 39
22 19 13
22 20 39
22 21 5
23 0 13
23 1 38
23 2 2
23 3 6
23 4 25
23 5 24
23 6 30
23 7 4
23 8 11
23 9 16
23 10 28
23 11 14
23 12 20
23 13 7
23 14 29
23 15 22
23 16 17
23 17 6
23 18 30
23 19 30
23 20 18
23 21 26
23 22 30
24 0 10
24 1 33
24 2 1
24 3 26
24 4 19
24 5 40
24 6 2
24 7 9
24 8 1
24 9 31
24 10 19
24 11 13
24 12 4
24 13 24
24 14 10
24 15 12
24 16 19
24 17 39
24 18 40
24 19 39
24 20 6
24 21 2
24 22 7
24 23 40
25 0 2
25 1 4
25 2 26
25 3 5
25 4 15
25 5 2
25 6 3
25 7 33
25 8 37
25 9 18
25 10 29
25 11 16
25 12 33
25 13 29
25 14 16
25 15 10
25 16 3
25 17 15
25 18 23
25 19 17
25 20 23
25 21 8
25 22 3
25 23 33
25 24 11
26 0 22
26 1 27
26 2 23
26 3 17
26 4 20
26 5 39
26 6 38
26 7 5
26 8 2
26 9 24
26 10 30
26 11 7
26 12 9
26 13 3
26 14 19
26 15 2
26 16 10
26 17 14
26 18 4
26 19 34
26 20 19
26 21 30
26 22 39
26 23 18
26 24 21
26 25 29
27 0 25
27 1 17
27 2 35
27 3 21
27 4 24
27 5 31
27 6 40
27 7 1
27 8 32
27 9 27
27 10 25
27 11 16
27 12 33
27 13 24
27 14 30
27 15 19
27 16 9
27 17 18
27 18 22
27 19 11
27 20 31
27 21 31
27 22 10
27 23 12
27 24 3
27 25 1
27 26 21
28 0 4
28 1 12
28 2 24
28 3 10
28 4 24
28 5 27
28 6 37
28 7 21
28 8 1
28 9 32
28 10 38
28 11 37
28 12 20
28 13 31
28 14 33
28 15 9
28 16 15
28 17 26
28 18 21
28 19 14
28 20 15
28 21 9
28 22 35
28 23 16
28 24 25
28 25 15
28 26 38
28 27 13
29 0 16
29 1 2
29 2 6
29 3 17
29 4 5
29 5 28
29 6 6
29 7 23
29 8 37
29 9 40
29 10 25
29 11 38
29 12 35
29 13 39
29 14 20
29 15 4
29 16 16
29 17 28
29 18 1
29 19 29
29 20 40
29 21 25
29 22 4
29 23 11
29 24 38
29 25 34
29 26 13
29 27 7
29 28 17
30 0 1
30 1 2
30 2 27
30 3 26
30 4 22
30 5 11
30 6 18
30 7 40
30 8 20
30 9 36
30 10 32
30 11 20
30 12 14
30 13 12
30 14 14
30 15 1
30 16 16
30 17 27
30 18 30
30 19 30
30 20 13
30 21 28
30 22 16
30 23 11
30 24 22
30 25 24
30 26 19
30 27 11
30 28 9
30 29 39
31 0 33
31 1 3
31 2 37
31 3 5
31 4 7
31 5 12
31 6 17
31 7 22
31 8 40
31 9 11
31 10 12
31 11 22
31 12 7
31 13 38
31 14 39
31 15 34
31 16 22
31 17 6
31 18 19
31 19 10
31 20 39
31 21 8
31 22 15
31 23 10
31 24 33
31 25 2
31 26 9
31 27 11
31 28 37
31 29 34
31 30 27
32 0 37
32 1 9
32 2 6
32 3 1
32 4 24
32 5 31
32 6 27
32 7 5
32 8 10
32 9 40
32 10 35
32 11 19
32 12 32
32 13 40
32 14 32
32 15 6
32 16 6
32 17 21
32 18 17
32 19 7
32 20 14
32 21 9
32 22 40
32 23 37
32 24 9
32 25 13
32 26 1
32 27 36
32 28 8
32 29 40
32 30 14
32 31 11
33 0 14
33 1 24
33 2 9
33 3 28
33 4 12
33 5 38
33 6 4
33 7 7
33 8 21
33 9 11
33 10 37
33 11 17
33 12 7
33 13 12
33 14 8
33 15 24
33 16 4
33 17 33
33 18 20
33 19 20
33 20 15
33 21 23
33 22 29
33 23 32
33 24 38
33 25 16
33 26 20
33 27 22
33 28 9
33 29 34
33 30 29
33 31 8
33 32 11
34 0 34
34 1 30
34 2 33
34 3 8
34 4 3
34 5 29
34 6 24
34 7 19
34 8 1
34 9 29
34 10 6
34 11 33
34 12 1
34 13 1
34 14 32
34 15 15
34 16 35
34 17 15
34 18 28
34 19 39
34 20 12
34 21 18
34 22 1
34 23 25
34 24 2
34 25 19
34 26 19
34 27 36
34 28 36
34 29 38
34 30 6
34 31 21
34 32 3
34 33 1
35 0 19
35 1 23
35 2 35
35 3 25
35 4 8
35 5 35
35 6 6
35 7 24
35 8 21
35 9 25
35 10 25
35 11 24
35 12 22
35 13 17
35 14 19
35 15 15
35 16 35
35 17 37
35 18 7
35 19 15
35 20 6
35 21 9
35 22 7
35 23 13
35 24 22
35 25 15
35 26 6
35 27 38
35 28 32
35 29 26
35 30 36
35 31 3
35 32 5
35 33 26
35 34 30
36 0 20
36 1 7
36 2 10
36 3 30
36 4 31
36 5 31
36 6 40
36 7 11
36 8 30
36 9 8
36 10 12
36 11 8
36 12 38
36 13 14
36 14 38
36 15 34
36 16 38
36 17 30
36 18 10
36 19 5
36 20 36
36 21 26
36 22 11
36 23 26
36 24 25
36 25 2
36 26 30
36 27 35
36 28 20
36 29 8
36 30 26
36 31 10
36 32 28
36 33 15
36 34 27
36 35 17
37 0 18
37 1 34
37 2 29
37 3 18
37 4 24
37 5 6
37 6 27
37 7 29
37 8 25
37 9 36
37 10 28
37 11 14
37 12 28
37 13 32
37 14 32
37 15 38
37 16 15
37 17 5
37 18 23
37 19 36
37 20 25
37 21 27
37 22 19
37 23 37
37 24 21
37 25 14
37 26 28
37 27 19
37 28 5
37 29 27
37 30 28
37 31 32
37 32 18
37 33 34
37 34 40
37 35 11
37 36 22
38 0 11
38 1 27
38 2 13
38 3 39
38 4 18
38 5 30
38 6 19
38 7 1
38 8 1
38 9 16
38 10 33
38 11 3
38 12 9
38 13 25
38 14 7
38 15 12
38 16 19
38 17 35
38 18 32
38 19 30
38 20 38
38 21 26
38 22 19
38 23 1
38 24 20
38 25 12
38 26 31
38 27 15
38 28 17
38 29 11
38 30 35
38 31 7
38 32 10
38 33 30
38 34 9
38 35 16
38 36 9
38 37 11
39 0 3
39 1 14
39 2 16
39 3 36
39 4 24
39 5 21
39 6 14
39 7 39
39 8 3
39 9 24
39 10 35
39 11 14
39 12 14
39 13 6
39 14 20
39 15 5
39 16 23
39 17 4
39 18 9
39 19 29
39 20 6
39 21 14
39 22 7
39 23 7
39 24 33
39 25 2
39 26 3
39 27 27
39 28 3
39 29 6
39 30 11
39 31 8
39 32 25
39 33 32
39 34 18
39 35 19
39 36 1
39 37 9
39 38 25
40 0 10
40 1 32
40 2 2
40 3 11
40 4 19
40 5 1
40 6 38
40 7 39
40 8 9
40 9 38
40 10 8
40 11 18
40 12 18
40 13 31
40 14 40
40 15 3
40 16 13
40 17 24
40 18 31
40 19 14
40 20 15
40 21 9
40 22 6
40 23 36
40 24 37
40 25 21
40 26 9
40 27 31
40 28 14
40 29 10
40 30 24
40 31 9
40 32 5
40 33 25
40 34 22
40 35 14
40 36 2
40 37 10
40 38 21
40 39 12
41 0 27
41 1 34
41 2 14
41 3 22
41 4 2
41 5 7
41 6 13
41 7 33
41 8 16
41 9 35
41 10 33
41 11 30
41 12 36
41 13 12
41 14 40
41 15 39
41 16 14
41 17 22
41 18 2
41 19 13
41 20 36
41 21 8
41 22 38
41 23 31
41 24 9
41 25 11
41 26 13
41 27 27
41 28 32
41 29 35
41 30 13
41 31 28
41 32 20
41 33 7
41 34 26
41 35 40
41 36 5
41 37 34
41 38 25
41 39 14
41 40 37
42 0 2
42 1 17
42 2 20
42 3 10
42 4 18
42 5 29
42 6 17
42 7 27
42 8 11
42 9 11
42 10 39
42 11 19
42 12 2
42 13 14
42 14 33
42 15 38
42 16 16
42 17 34
42 18 34
42 19 21
42 20 20
42 21 33
42 22 6
42 23 4
42 24 30
42 25 6
42 26 32
42 27 8
42 28 27
42 29 17
42 30 6
42 31 8
42 32 22
42 33 21
42 34 24
42 35 15
42 36 33
42 37 35
42 38 24
42 39 17
42 40 16
42 41 9
43 0 30
43 1 9
43 2 20
43 3 17
43 4 6
43 5 20
43 6 35
43 7 31
43 8 8
43 9 31
43 10 39
43 11 11
43 12 28
43 13 2
43 14 30
43 15 32
43 16 36
43 17 25
43 18 13
43 19 11
43 20 27
43 21 11
43 22 14
43 23 27
43 24 16
43 25 40
43 26 2
43 27 10
43 28 27
43 29 11
43 30 8
43 31 25
43 32 13
43 33 7
43 34 13
43 35 20
43 36 10
43 37 28
43 38 11
43 39 30
43 40 39
43 41 37
43 42 30
44 0 32
44 1 2
44 2 4
44 3 9
44 4 10
44 5 24
44 6 19
44 7 29
44 8 34
44 9 33
44 10 31
44 11 9
44 12 34
44 13 37
44 14 24
44 15 21
44 16 38
44 17 5
44 18 39
44 19 40
44 20 16
44 21 18
44 22 39
44 23 27
44 24 10
44 25 30
44 26 37
44 27 10
44 28 15
44 29 32
44 30 40
44 31 10
44 32 8
44 33 29
44 34 40
44 35 12
44 36 36
44 37 36
44 38 20
44 39 16
44 40 27
44 41 9
44 42 30
44 43 12
45 0 21
45 1 13
45 2 7
45 3 33
45 4 8
45 5 40
45 6 11
45 7 19
45 8 23
45 9 13
45 10 36
45 11 21
45 12 30
45 13 28
45 14 1
45 15 39
45 16 6
45 17 7
45 18 22
45 19 14
45 20 33
45 21 27
45 22 18
45 23 33
45 24 28
45 25 1
45 26 40
45 27 35
45 28 5
45 29 30
45 30 33
45 31 16
45 32 18
45 33 8
45 34 16
45 35 9
45 36 11
45 37 18
45 38 30
45 39 5
45 40 11
45 41 39
45 42 30
45 43 5
45 44 16
46 0 5
46 1 7
46 2 20
46 3 13
46 4 29
46 5 28
46 6 31
46 7 24
46 8 25
46 9 38
46 10 21
46 11 4
46 12 29
46 13 28
46 14 5
46 15 10
46 16 37
46 17 31
46 18 17
46 19 24
46 20 5
46 21 10
46 22 38
46 23 16
46 24 3
46 25 34
46 26 24
46 27 22
46 28 28
46 29 27
46 30 10
46 31 30
46 32 12
46 33 36
46 34 9
46 35 32
46 36 30
46 37 36
46 38 18
46 39 33
46 40 17
46 41 33
46 42 26
46 43 40
46 44 28
46 45 28
47 0 39
47 1 34
47 2 8
47 3 29
47 4 32
47 5 2
47 6 39
47 7 5
47 8 31
47 9 28
47 10 15
47 11 29
47 12 11
47 13 11
47 14 21
47 15 8
47 16 34
47 17 17
47 18 13
47 19 33
47 20 8
47 21 5
47 22 22
47 23 35
47 24 38
47 25 4
47 26 20
47 27 39
47 28 8
47 29 20
47 30 2
47 31 15
47 32 20
47 33 7
47 34 21
47 35 36
47 36 36
47 37 38
47 38 12
47 39 25
47 40 8
47 41 40
47 42 3
47 43 2
47 44 17
47 45 4
47 46 18
48 0 1
48 1 8
48 2 3
48 3 13
48 4 29
48 5 26
48 6 9
48 7 35
48 8 25
48 9 37
48 10 11
48 11 11
48 12 37
48 13 17
48 14 1
48 15 26
48 16 12
48 17 14
48 18 37
48 19 26
48 20 20
48 21 15
48 22 14
48 23 35
48 24 21
48 25 2
48 26 35
48 27 24
48 28 4
48 29 33
48 30 14
48 31 1
48 32 1
48 33 20
48 34 10
48 35 40
48 36 12
48 37 13
48 38 21
48 39 11
48 40 6
48 41 18
48 42 14
48 43 22
48 44 26
48 45 7
48 46 2
48 47 21
49 0 3
49 1 14
49 2 10
49 3 23
49 4 31
49 5 25
49 6 7
49 7 37
49 8 25
49 9 31
49 10 19
49 11 19
49 12 22
49 13 2
49 14 37
49 15 29
49 16 3
49 17 8
49 18 12
49 19 39
49 20 8
49 21 35
49 22 27
49 23 22
49 24 22
49 25 18
49 26 12
49 27 36
49 28 18
49 29 15
49 30 3
49 31 15
49 32 13
49 33 26
49 34 18
49 35 37
49 36 30
49 37 7
49 38 4
49 39 27
49 40 29
49 41 36
49 42 15
49 43 30
49 44 16
49 45 38
49 46 8
49 47 8
49 48 40
